p cnf 15 24
-15 -12 -8 -5 6 9 -1 10 -7 3 -4 0
-14 -12 1 -5 -8 13 -4 7 -2 15 -6 9 3 0
-10 -4 -13 -9 -5 -1 8 11 -6 12 -15 3 0
1 15 11 8 -5 -2 7 -13 -10 -9 12 -14 -4 -6 -3 0
-10 15 0
9 -5 -8 2 0
8 -15 5 1 13 -6 -3 -9 4 2 11 0
11 -6 14 0
9 -12 1 2 0
-13 -5 4 -14 -6 -8 2 0
-15 14 -9 0
-7 -1 -10 -6 12 -5 11 8 0
-4 2 -15 7 0
10 -1 -14 -12 -8 0
-13 -14 0
5 -9 8 -12 -13 -14 11 4 1 -15 10 2 -3 0
7 -14 5 12 9 3 15 -10 11 -4 0
-1 6 12 0
2 -6 14 -10 8 1 -3 12 -13 -7 -11 9 0
6 -13 9 14 -12 15 3 5 -4 2 8 7 0
2 -9 7 4 -15 0
-10 15 0
-9 -14 -4 0
-2 5 0
